09-routing/solutions/XSH-n20-k4-31.opt.sol
Route #1: 7 20 19 9 5
Route #2: 6 1 18 11
Route #3: 2 13 10 12 3 14
Route #4: 4 8 17 16 15
Cost 445
